#######################
Slurm job id: 17497813_24
Running on machine: p31
Running cmd: /nfs/shared/static-builds/gurobi1003 SOFTMEMLIMIT=125 MIPFocus=2 Presolve=1 TimeLimit=500 seed=13 /nfs/models/miplib2010/k16x240.mps.bz2
#######################
Set parameter TimeLimit to value 500
Set parameter SoftMemLimit to value 125
Set parameter MIPFocus to value 2
Set parameter LogFile to value 1003-MIPFocus2-Presolve1-TimeLimit500-k16x240-3.log
Set parameter Presolve to value 1
Set parameter Seed to value 13
Using license file /opt/gurobi/gurobi.lic

Gurobi Optimizer version 10.0.3 build v10.0.3rc0 (linux64)
Copyright (c) 2023, Gurobi Optimization, LLC

Read MPS format model from file /nfs/models/miplib2010/k16x240.mps.bz2
Reading time = 0.01 seconds
k16x240: 256 rows, 480 columns, 960 nonzeros

CPU model: Intel(R) Xeon(R) E-2388G CPU @ 3.20GHz, instruction set [SSE2|AVX|AVX2|AVX512]
Thread count: 8 physical cores, 16 logical processors, using up to 16 threads

Optimize a model with 256 rows, 480 columns and 960 nonzeros
Model fingerprint: 0x4e80885f
Variable types: 240 continuous, 240 integer (240 binary)
Coefficient statistics:
  Matrix range     [1e+00, 1e+03]
  Objective range  [1e+00, 1e+03]
  Bounds range     [1e+00, 1e+03]
  RHS range        [4e+00, 4e+02]
Found heuristic solution: objective 25767.000000
Presolve time: 0.00s
Presolved: 256 rows, 480 columns, 960 nonzeros
Variable types: 240 continuous, 240 integer (240 binary)

Root relaxation: objective 2.769838e+03, 51 iterations, 0.00 seconds (0.00 work units)

    Nodes    |    Current Node    |     Objective Bounds      |     Work
 Expl Unexpl |  Obj  Depth IntInf | Incumbent    BestBd   Gap | It/Node Time

     0     0 2769.83800    0   14 25767.0000 2769.83800  89.3%     -    0s
H    0     0                    11359.000000 2769.83800  75.6%     -    0s
H    0     0                    11195.000000 2769.83800  75.3%     -    0s
H    0     0                    11074.000000 8116.87580  26.7%     -    0s
     0     0 8116.87580    0   26 11074.0000 8116.87580  26.7%     -    0s
H    0     0                    10916.000000 8116.87580  25.6%     -    0s
H    0     0                    10896.000000 8588.30479  21.2%     -    0s
     0     0 8588.30479    0   25 10896.0000 8588.30479  21.2%     -    0s
     0     0 8613.92228    0   22 10896.0000 8613.92228  20.9%     -    0s
H    0     0                    10806.000000 8720.79342  19.3%     -    0s
     0     0 8720.79342    0   17 10806.0000 8720.79342  19.3%     -    0s
H    0     0                    10748.000000 8720.79342  18.9%     -    0s
H    0     0                    10711.000000 8842.48840  17.4%     -    0s
     0     0 8842.48840    0   27 10711.0000 8842.48840  17.4%     -    0s
     0     0 8855.03261    0   33 10711.0000 8855.03261  17.3%     -    0s
     0     0 8857.29435    0   38 10711.0000 8857.29435  17.3%     -    0s
     0     0 9006.09170    0   38 10711.0000 9006.09170  15.9%     -    0s
     0     0 9076.33819    0   41 10711.0000 9076.33819  15.3%     -    0s
     0     0 9077.14429    0   38 10711.0000 9077.14429  15.3%     -    0s
     0     0 9136.86448    0   29 10711.0000 9136.86448  14.7%     -    0s
     0     0 9138.49968    0   31 10711.0000 9138.49968  14.7%     -    0s
     0     0 9172.45264    0   27 10711.0000 9172.45264  14.4%     -    0s
     0     0 9172.45264    0   27 10711.0000 9172.45264  14.4%     -    0s
     0     2 9172.45264    0   27 10711.0000 9172.45264  14.4%     -    0s
H   33    40                    10681.000000 9360.85317  12.4%  72.7    0s
H  307   293                    10678.000000 9360.85317  12.3%  31.4    0s
H  326   312                    10674.000000 9360.85317  12.3%  30.0    0s
 32669 13187 10392.3594   25   30 10674.0000 10017.9942  6.15%  26.5    5s
 84362 21149 10484.8476   37    7 10674.0000 10236.0026  4.10%  27.7   10s
 131055 19735     cutoff   28      10674.0000 10365.8187  2.89%  27.9   15s
 174883  6295     cutoff   31      10674.0000 10515.7661  1.48%  27.3   20s

Cutting planes:
  Gomory: 3
  Lift-and-project: 6
  Cover: 93
  Implied bound: 41
  MIR: 184
  Flow cover: 302
  Flow path: 43
  Inf proof: 2
  Zero half: 14
  Network: 43
  Relax-and-lift: 4

Explored 185477 nodes (4902558 simplex iterations) in 20.98 seconds (24.15 work units)
Thread count was 16 (of 16 available processors)

Solution count 10: 10674 10678 10681 ... 11195

Optimal solution found (tolerance 1.00e-04)
Best objective 1.067400000000e+04, best bound 1.067400000000e+04, gap 0.0000%
